000 000 000 000 002 001 000 001 000 002 008 008 003 002 001 003 004 004 002 002 003 006 009 007 010 010 009 008 007 008 008
001 000 000 000 001 001 001 001 002 003 010 006 005 002 002 003 005 004 001 002 003 006 004 006 007 007 010 012 011 010 010
001 001 000 000 000 000 000 001 002 004 004 004 005 003 004 005 007 006 001 001 001 005 004 008 005 004 009 015 019 013 010
001 001 001 000 000 001 000 001 001 002 002 002 003 006 006 010 006 003 002 001 001 002 003 007 008 007 009 014 026 023 009
001 002 001 001 000 000 001 000 001 003 002 002 002 004 009 007 005 001 002 003 003 002 002 006 009 009 009 009 016 014 007
001 002 003 002 001 000 001 001 001 002 001 001 002 004 008 004 003 001 002 003 009 006 002 003 008 010 017 007 015 011 004
001 001 004 002 002 001 001 001 001 002 002 001 001 002 003 003 002 001 005 005 010 005 002 002 007 010 014 010 012 011 005
001 001 002 003 002 000 001 001 001 005 005 002 001 002 002 002 002 003 002 004 005 007 006 002 007 013 031 017 017 010 005
001 001 002 005 004 001 001 001 002 004 008 003 002 001 003 001 001 002 004 006 004 006 003 005 008 019 039 026 013 007 006
001 003 003 007 007 005 001 001 001 003 006 003 001 001 005 001 002 005 005 005 004 005 005 006 023 039 032 041 012 006 004
002 004 003 002 004 003 001 001 001 001 001 002 002 001 002 003 003 007 007 005 004 004 007 009 052 035 044 042 013 007 005
002 002 002 001 002 003 001 000 001 000 000 001 001 001 004 003 004 008 005 002 002 004 011 019 058 072 039 043 019 011 006
005 002 002 001 001 001 001 001 001 001 000 001 001 002 003 003 002 006 006 001 001 002 005 013 033 039 058 048 035 015 009
005 003 002 001 001 000 000 000 000 000 000 001 000 000 001 001 001 004 009 002 001 003 005 009 024 034 046 054 030 017 016
002 004 002 002 001 000 000 000 000 000 000 001 000 000 000 000 000 002 017 002 002 003 005 011 013 028 039 028 016 022 015
005 003 004 002 001 000 000 000 000 000 000 000 000 000 000 000 000 001 016 002 001 002 004 010 009 018 022 014 015 016 021
005 004 003 003 001 000 000 000 000 000 000 000 000 000 000 000 000 000 004 004 003 007 005 005 010 005 010 010 008 011 012
004 001 003 003 003 001 000 000 000 000 000 000 -99 000 000 000 000 000 001 003 003 003 005 003 003 003 008 008 008 009 010
000 001 003 004 002 001 000 000 000 000 000 000 000 000 000 000 000 000 000 002 003 005 006 004 008 006 009 010 009 012 011
000 000 001 002 001 000 000 000 000 000 000 000 000 000 000 000 000 000 000 001 003 005 008 011 010 009 007 012 011 016 011
000 000 001 001 000 000 000 000 000 000 000 000 000 000 000 000 000 001 001 001 002 010 010 009 021 023 018 017 024 018 012
001 000 001 000 000 000 000 000 000 000 000 000 000 000 000 000 000 001 001 001 000 003 007 013 028 033 015 023 037 026 010
002 001 001 000 000 000 000 000 000 000 000 000 000 000 000 000 001 002 001 001 000 003 007 013 021 024 015 025 029 023 010
002 001 001 001 000 000 000 000 000 000 000 000 000 000 000 000 001 001 001 000 000 001 004 009 012 016 011 023 022 013 007
001 001 001 001 000 001 000 000 001 000 000 000 000 000 000 000 001 001 002 001 000 001 002 006 010 014 007 019 -99 006 005
000 000 000 000 000 001 000 000 000 001 000 000 000 000 000 000 001 001 002 002 001 001 002 -99 -99 -99 -99 -99 -99 003 004
000 000 000 000 000 000 000 000 001 001 000 000 000 000 001 002 004 005 004 005 002 001 001 -99 -99 -99 -99 -99 -99 002 003
000 000 000 000 000 000 000 001 001 001 000 000 000 000 000 002 012 007 006 004 002 001 002 -99 -99 -99 -99 -99 -99 001 001
000 000 000 000 000 000 000 000 000 000 000 000 000 000 000 002 005 005 005 004 002 001 003 003 -99 -99 -99 -99 -99 001 001
000 000 000 000 000 000 000 000 000 000 000 000 000 000 000 000 003 004 004 004 001 002 004 003 003 -99 -99 -99 -99 -99 001
000 001 000 000 000 000 000 000 000 000 000 000 000 000 000 001 002 004 004 003 001 001 004 004 002 001 001 -99 -99 -99 -99
002 002 001 000 001 000 000 000 000 000 000 000 000 000 000 001 004 005 002 002 001 002 005 003 002 001 001 -99 -99 -99 000
002 002 001 000 001 001 000 000 000 000 000 000 000 000 001 001 003 003 002 000 000 001 004 002 001 001 000 000 000 000 001
001 002 001 000 000 000 001 001 000 000 000 000 000 000 000 000 003 003 003 002 001 001 002 001 001 000 000 000 000 000 002
002 001 003 001 001 000 001 001 000 000 000 000 000 000 000 000 003 005 006 004 001 001 001 000 001 001 000 000 000 000 002
001 003 005 003 001 000 000 000 000 000 000 000 000 000 000 001 006 005 014 006 002 002 002 000 000 000 000 000 000 000 006
003 003 003 003 002 000 000 000 000 000 000 000 000 000 001 002 005 006 007 009 004 003 002 001 001 000 000 000 000 000 002
002 002 003 004 003 001 001 000 000 000 000 000 000 000 000 001 003 005 006 011 009 003 003 003 000 000 000 000 000 000 002
001 001 003 004 003 002 001 000 000 000 000 000 000 000 000 000 001 003 005 017 014 006 003 004 001 001 001 000 000 000 003
000 002 003 004 004 003 002 001 000 000 000 000 000 000 000 000 000 003 006 015 009 003 001 003 002 002 007 001 000 001 004
001 001 003 003 004 004 002 001 000 000 000 000 000 000 000 000 000 001 005 007 005 002 000 001 001 002 009 002 000 000 006
001 002 002 002 002 002 001 001 000 000 000 000 000 000 000 000 000 001 004 004 004 002 001 000 001 004 002 002 000 000 008
001 003 003 003 001 001 002 002 000 000 000 000 000 000 000 000 000 000 002 003 004 002 001 000 001 002 001 002 002 002 007
002 002 003 002 001 002 003 002 000 000 001 000 000 000 000 000 000 000 001 002 001 001 001 001 001 001 003 003 003 002 006
000 000 001 001 002 005 006 003 001 000 000 000 000 000 000 000 000 000 001 001 000 000 000 000 001 005 007 002 004 004 005
000 000 000 000 002 006 005 002 001 000 000 000 000 000 000 000 000 000 000 000 000 000 000 001 001 004 003 002 004 006 004
000 000 000 000 001 002 002 000 001 001 000 000 000 000 000 000 000 000 000 000 001 001 001 001 000 002 003 001 001 004 003
000 000 000 000 000 000 000 000 002 001 001 001 000 000 000 000 000 000 000 000 001 005 002 001 000 001 005 001 000 003 001
000 000 000 000 000 000 000 000 001 001 001 000 000 000 000 000 000 000 000 000 001 002 001 001 000 001 001 000 000 000 000
000 000 000 -99 -99 000 000 000 000 000 000 000 000 000 000 -99 -99 000 000 001 001 001 002 001 000 000 000 000 000 000 000
000 -99 -99 -99 -99 -99 000 000 000 000 000 000 000 000 000 000 000 000 001 001 000 001 000 001 000 000 000 000 000 -99 -99
000 000 000 -99 -99 -99 -99 000 000 000 000 000 000 000 001 000 000 000 001 000 000 000 000 001 000 -99 -99 -99 -99 -99 -99
000 000 000 -99 000 -99 -99 -99 -99 000 000 000 000 001 002 002 000 001 002 000 000 000 000 000 -99 -99 -99 -99 -99 -99 -99
000 000 000 000 000 -99 -99 -99 -99 000 000 000 000 001 003 002 002 003 002 001 001 000 000 000 -99 -99 -99 -99 -99 -99 -99
001 000 000 000 000 -99 -99 -99 -99 -99 000 000 001 004 005 005 004 005 004 003 001 000 -99 -99 -99 -99 -99 -99 -99 -99 -99
